presolving:
(round 1, fast)       305 del vars, 100 del conss, 0 add conss, 35247 chg bounds, 0 chg sides, 0 chg coeffs, 0 upgd conss, 0 impls, 0 clqs
(round 2, fast)       305 del vars, 100 del conss, 0 add conss, 35247 chg bounds, 205 chg sides, 4947 chg coeffs, 0 upgd conss, 0 impls, 0 clqs
(round 3, fast)       20805 del vars, 20805 del conss, 0 add conss, 35247 chg bounds, 205 chg sides, 4947 chg coeffs, 0 upgd conss, 0 impls, 0 clqs
   (0.5s) running MILP presolver
   (0.6s) MILP presolver (4 rounds): 0 aggregations, 0 fixings, 226 bound changes
(round 4, medium)     20805 del vars, 30795 del conss, 9795 add conss, 35473 chg bounds, 205 chg sides, 4947 chg coeffs, 0 upgd conss, 0 impls, 0 clqs
(round 5, fast)       20900 del vars, 30795 del conss, 9795 add conss, 35473 chg bounds, 205 chg sides, 4947 chg coeffs, 0 upgd conss, 0 impls, 0 clqs
(round 6, fast)       20900 del vars, 30795 del conss, 9795 add conss, 35473 chg bounds, 300 chg sides, 4947 chg coeffs, 0 upgd conss, 0 impls, 0 clqs
(round 7, exhaustive) 20900 del vars, 30795 del conss, 9795 add conss, 35473 chg bounds, 300 chg sides, 4947 chg coeffs, 9500 upgd conss, 0 impls, 0 clqs
   (0.8s) probing: 51/100 (51.0%) - 0 fixings, 0 aggregations, 0 implications, 0 bound changes
   (0.8s) probing aborted: 50/50 successive totally useless probings
   (0.8s) symmetry computation started: requiring (bin +, int -, cont +), (fixed: bin -, int +, cont -)
   (0.8s) no symmetry present
presolving (8 rounds: 8 fast, 3 medium, 2 exhaustive):
 20900 deleted vars, 30795 deleted constraints, 9795 added constraints, 35473 tightened bounds, 0 added holes, 300 changed sides, 4947 changed coefficients
 9500 implications, 0 cliques
presolved problem has 9600 variables (100 bin, 0 int, 0 impl, 9500 cont) and 9795 constraints
   9500 constraints of type <varbound>
    295 constraints of type <linear>
Presolving Time: 0.70

 time | node  | left  |LP iter|LP it/n|mem/heur|mdpt |vars |cons |rows |cuts |sepa|confs|strbr|  dualbound   | primalbound  |  gap   | compl. 
t 0.8s|     1 |     0 |     0 |     - | trivial|   0 |9600 |9795 |   0 |   0 |  0 |   0 |   0 |-2.165347e+08 | 4.273000e+06 |    Inf | unknown
p 0.9s|     1 |     0 |   163 |     - |   locks|   0 |9600 |9795 |9795 |   0 |  0 |   0 |   0 |-2.165347e+08 | 9.708940e+05 |    Inf | unknown
i 0.9s|     1 |     0 |   163 |     - |  oneopt|   0 |9600 |9795 |9795 |   0 |  0 |   0 |   0 |-2.165347e+08 | 9.198940e+05 |    Inf | unknown
  3.8s|     1 |     0 |  6159 |     - |   154M |   0 |9600 |9795 |9795 |   0 |  0 |   0 |   0 | 7.653598e+05 | 9.198940e+05 |  20.19%| unknown
  6.7s|     1 |     0 | 12121 |     - |   158M |   0 |9600 |9795 |9849 |  54 |  1 |   0 |   0 | 8.003499e+05 | 9.198940e+05 |  14.94%| unknown
  8.2s|     1 |     0 | 14835 |     - |   161M |   0 |9600 |9795 |9890 |  95 |  2 |   0 |   0 | 8.163497e+05 | 9.198940e+05 |  12.68%| unknown
  9.2s|     1 |     0 | 16598 |     - |   163M |   0 |9600 |9795 |9919 | 124 |  3 |   0 |   0 | 8.239986e+05 | 9.198940e+05 |  11.64%| unknown
r 9.2s|     1 |     0 | 16598 |     - |simplero|   0 |9600 |9795 |9919 | 124 |  3 |   0 |   0 | 8.239986e+05 | 9.187049e+05 |  11.49%| unknown
r 9.3s|     1 |     0 | 16598 |     - |shifting|   0 |9600 |9795 |9919 | 124 |  3 |   0 |   0 | 8.239986e+05 | 9.169159e+05 |  11.28%| unknown
 10.1s|     1 |     0 | 18079 |     - |   166M |   0 |9600 |9795 |9944 | 149 |  4 |   0 |   0 | 8.293765e+05 | 9.169159e+05 |  10.55%| unknown
r10.1s|     1 |     0 | 18079 |     - |simplero|   0 |9600 |9795 |9944 | 149 |  4 |   0 |   0 | 8.293765e+05 | 9.159299e+05 |  10.44%| unknown
 10.7s|     1 |     0 | 18872 |     - |   167M |   0 |9600 |9795 |9961 | 166 |  5 |   0 |   0 | 8.320942e+05 | 9.159299e+05 |  10.08%| unknown
r10.7s|     1 |     0 | 18872 |     - |simplero|   0 |9600 |9795 |9961 | 166 |  5 |   0 |   0 | 8.320942e+05 | 9.102722e+05 |   9.40%| unknown
r10.7s|     1 |     0 | 18872 |     - |rounding|   0 |9600 |9795 |9961 | 166 |  5 |   0 |   0 | 8.320942e+05 | 9.102722e+05 |   9.40%| unknown
r10.7s|     1 |     0 | 18872 |     - |shifting|   0 |9600 |9795 |9961 | 166 |  5 |   0 |   0 | 8.320942e+05 | 9.075949e+05 |   9.07%| unknown
 time | node  | left  |LP iter|LP it/n|mem/heur|mdpt |vars |cons |rows |cuts |sepa|confs|strbr|  dualbound   | primalbound  |  gap   | compl. 
 11.4s|     1 |     0 | 19956 |     - |   170M |   0 |9600 |9795 |9991 | 196 |  6 |   0 |   0 | 8.363531e+05 | 9.075949e+05 |   8.52%| unknown
r11.4s|     1 |     0 | 19956 |     - |simplero|   0 |9600 |9795 |9991 | 196 |  6 |   0 |   0 | 8.363531e+05 | 9.004560e+05 |   7.66%| unknown
 11.9s|     1 |     0 | 20621 |     - |   171M |   0 |9600 |9795 |  10k| 214 |  7 |   0 |   0 | 8.386778e+05 | 9.004560e+05 |   7.37%| unknown
r11.9s|     1 |     0 | 20621 |     - |simplero|   0 |9600 |9795 |  10k| 214 |  7 |   0 |   0 | 8.386778e+05 | 8.990221e+05 |   7.20%| unknown
 12.6s|     1 |     0 | 21753 |     - |   174M |   0 |9600 |9795 |  10k| 233 |  8 |   0 |   0 | 8.399326e+05 | 8.990221e+05 |   7.04%| unknown
 13.1s|     1 |     0 | 22246 |     - |   175M |   0 |9600 |9795 |  10k| 248 |  9 |   0 |   0 | 8.410920e+05 | 8.990221e+05 |   6.89%| unknown
r13.1s|     1 |     0 | 22246 |     - |shifting|   0 |9600 |9795 |  10k| 248 |  9 |   0 |   0 | 8.410920e+05 | 8.982995e+05 |   6.80%| unknown
 13.4s|     1 |     0 | 22458 |     - |   177M |   0 |9600 |9795 |  10k| 261 | 10 |   0 |   0 | 8.416836e+05 | 8.982995e+05 |   6.73%| unknown
r13.4s|     1 |     0 | 22458 |     - |simplero|   0 |9600 |9795 |  10k| 261 | 10 |   0 |   0 | 8.416836e+05 | 8.935311e+05 |   6.16%| unknown
 13.7s|     1 |     0 | 22643 |     - |   178M |   0 |9600 |9795 |  10k| 271 | 11 |   0 |   0 | 8.420956e+05 | 8.935311e+05 |   6.11%| unknown
 13.9s|     1 |     0 | 22803 |     - |   181M |   0 |9600 |9795 |  10k| 278 | 12 |   0 |   0 | 8.423388e+05 | 8.935311e+05 |   6.08%| unknown
r13.9s|     1 |     0 | 22803 |     - |simplero|   0 |9600 |9795 |  10k| 278 | 12 |   0 |   0 | 8.423388e+05 | 8.878205e+05 |   5.40%| unknown
 14.3s|     1 |     0 | 23134 |     - |   182M |   0 |9600 |9795 |  10k| 288 | 13 |   0 |   0 | 8.429573e+05 | 8.878205e+05 |   5.32%| unknown
r14.3s|     1 |     0 | 23134 |     - |simplero|   0 |9600 |9795 |  10k| 288 | 13 |   0 |   0 | 8.429573e+05 | 8.811406e+05 |   4.53%| unknown
 14.5s|     1 |     0 | 23247 |     - |   183M |   0 |9600 |9795 |  10k| 295 | 14 |   0 |   0 | 8.432676e+05 | 8.811406e+05 |   4.49%| unknown
 time | node  | left  |LP iter|LP it/n|mem/heur|mdpt |vars |cons |rows |cuts |sepa|confs|strbr|  dualbound   | primalbound  |  gap   | compl. 
 14.9s|     1 |     0 | 23592 |     - |   184M |   0 |9600 |9795 |  10k| 312 | 15 |   0 |   0 | 8.439538e+05 | 8.811406e+05 |   4.41%| unknown
r14.9s|     1 |     0 | 23592 |     - |simplero|   0 |9600 |9795 |  10k| 312 | 15 |   0 |   0 | 8.439538e+05 | 8.793384e+05 |   4.19%| unknown
 15.2s|     1 |     0 | 23837 |     - |   186M |   0 |9600 |9795 |  10k| 324 | 16 |   0 |   0 | 8.444418e+05 | 8.793384e+05 |   4.13%| unknown
 15.4s|     1 |     0 | 23992 |     - |   188M |   0 |9600 |9795 |  10k| 334 | 17 |   0 |   0 | 8.446659e+05 | 8.793384e+05 |   4.10%| unknown
 15.7s|     1 |     0 | 24325 |     - |   192M |   0 |9600 |9795 |  10k| 348 | 18 |   0 |   0 | 8.448507e+05 | 8.793384e+05 |   4.08%| unknown
r15.7s|     1 |     0 | 24325 |     - |simplero|   0 |9600 |9795 |  10k| 348 | 18 |   0 |   0 | 8.448507e+05 | 8.733868e+05 |   3.38%| unknown
 15.8s|     1 |     0 | 24447 |     - |   193M |   0 |9600 |9795 |  10k| 354 | 19 |   0 |   0 | 8.450375e+05 | 8.733868e+05 |   3.35%| unknown
 15.9s|     1 |     0 | 24540 |     - |   195M |   0 |9600 |9795 |  10k| 359 | 20 |   0 |   0 | 8.450866e+05 | 8.733868e+05 |   3.35%| unknown
r15.9s|     1 |     0 | 24540 |     - |simplero|   0 |9600 |9795 |  10k| 359 | 20 |   0 |   0 | 8.450866e+05 | 8.721848e+05 |   3.21%| unknown
 16.1s|     1 |     0 | 24672 |     - |   195M |   0 |9600 |9795 |  10k| 363 | 21 |   0 |   0 | 8.452886e+05 | 8.721848e+05 |   3.18%| unknown
 16.1s|     1 |     0 | 24715 |     - |   197M |   0 |9600 |9795 |  10k| 365 | 22 |   0 |   0 | 8.453098e+05 | 8.721848e+05 |   3.18%| unknown
r16.2s|     1 |     0 | 24715 |     - |shifting|   0 |9600 |9795 |  10k| 365 | 22 |   0 |   0 | 8.453098e+05 | 8.720968e+05 |   3.17%| unknown
 16.3s|     1 |     0 | 24813 |     - |   197M |   0 |9600 |9795 |  10k| 370 | 23 |   0 |   0 | 8.454301e+05 | 8.720968e+05 |   3.15%| unknown
r16.3s|     1 |     0 | 24813 |     - |simplero|   0 |9600 |9795 |  10k| 370 | 23 |   0 |   0 | 8.454301e+05 | 8.680784e+05 |   2.68%| unknown
r16.3s|     1 |     0 | 24813 |     - |shifting|   0 |9600 |9795 |  10k| 370 | 23 |   0 |   0 | 8.454301e+05 | 8.662030e+05 |   2.46%| unknown
 time | node  | left  |LP iter|LP it/n|mem/heur|mdpt |vars |cons |rows |cuts |sepa|confs|strbr|  dualbound   | primalbound  |  gap   | compl. 
 16.4s|     1 |     0 | 24910 |     - |   198M |   0 |9600 |9795 |  10k| 374 | 24 |   0 |   0 | 8.454774e+05 | 8.662030e+05 |   2.45%| unknown
 16.5s|     1 |     0 | 24970 |     - |   198M |   0 |9600 |9795 |  10k| 381 | 25 |   0 |   0 | 8.455353e+05 | 8.662030e+05 |   2.44%| unknown
r16.5s|     1 |     0 | 24970 |     - |shifting|   0 |9600 |9795 |  10k| 381 | 25 |   0 |   0 | 8.455353e+05 | 8.655141e+05 |   2.36%| unknown
 16.6s|     1 |     0 | 24993 |     - |   200M |   0 |9600 |9795 |  10k| 385 | 26 |   0 |   0 | 8.455497e+05 | 8.655141e+05 |   2.36%| unknown
r16.6s|     1 |     0 | 24993 |     - |shifting|   0 |9600 |9795 |  10k| 385 | 26 |   0 |   0 | 8.455497e+05 | 8.634134e+05 |   2.11%| unknown
 16.7s|     1 |     0 | 25056 |     - |   201M |   0 |9600 |9795 |  10k| 389 | 27 |   0 |   0 | 8.456777e+05 | 8.634134e+05 |   2.10%| unknown
 16.8s|     1 |     0 | 25120 |     - |   201M |   0 |9600 |9795 |  10k| 395 | 28 |   0 |   0 | 8.457137e+05 | 8.634134e+05 |   2.09%| unknown
r17.4s|     1 |     0 | 26382 |     - |intshift|   0 |9600 |9795 |  10k| 395 | 28 |   0 |   0 | 8.457137e+05 | 8.541630e+05 |   1.00%| unknown
L25.6s|     1 |     0 | 26382 |     - |    rens|   0 |9600 |9795 |  10k| 395 | 28 |   0 |   0 | 8.457137e+05 | 8.463460e+05 |   0.07%| unknown
 25.9s|     1 |     0 | 26382 |     - |   202M |   0 |9600 |9795 |  10k| 395 | 28 |   0 |   0 | 8.457137e+05 | 8.463460e+05 |   0.07%| unknown
 25.9s|     1 |     0 | 26382 |     - |   202M |   0 |9600 |9795 |9999 | 395 | 28 |   0 |   0 | 8.457137e+05 | 8.463460e+05 |   0.07%| unknown
 26.0s|     1 |     0 | 26455 |     - |   202M |   0 |9600 |9795 |9908 | 399 | 29 |   0 |   0 | 8.457775e+05 | 8.463460e+05 |   0.07%| unknown
 26.1s|     1 |     0 | 26494 |     - |   202M |   0 |9600 |9795 |9911 | 402 | 30 |   0 |   0 | 8.457844e+05 | 8.463460e+05 |   0.07%| unknown
 26.1s|     1 |     0 | 26494 |     - |   205M |   0 |9600 |9795 |9816 | 402 | 30 |   0 |   0 | 8.457844e+05 | 8.463460e+05 |   0.07%| unknown
 28.2s|     1 |     0 | 26515 |     - |   222M |   0 |9600 |9413 |9816 | 402 | 30 |  16k|  27 | 8.458149e+05 | 8.463460e+05 |   0.06%| unknown
 time | node  | left  |LP iter|LP it/n|mem/heur|mdpt |vars |cons |rows |cuts |sepa|confs|strbr|  dualbound   | primalbound  |  gap   | compl. 
 28.2s|     1 |     0 | 26542 |     - |   222M |   0 |9600 |9413 |9819 | 405 | 31 |  16k|  27 | 8.458149e+05 | 8.463460e+05 |   0.06%| unknown
 28.3s|     1 |     0 | 26552 |     - |   222M |   0 |9600 |9413 |9806 | 406 | 32 |  16k|  27 | 8.458149e+05 | 8.463460e+05 |   0.06%| unknown
 28.3s|     1 |     2 | 26552 |     - |   222M |   0 |9600 |9413 |9806 | 406 | 32 |  16k|  28 | 8.458149e+05 | 8.463460e+05 |   0.06%| unknown
(run 1, node 1) restarting after 7 global fixings of integer variables

(restart) converted 294 cuts from the global cut pool into linear constraints

presolving:
(round 1, fast)       102 del vars, 287 del conss, 0 add conss, 0 chg bounds, 0 chg sides, 7671 chg coeffs, 0 upgd conss, 9500 impls, 0 clqs
(round 2, exhaustive) 102 del vars, 396 del conss, 0 add conss, 0 chg bounds, 104 chg sides, 7671 chg coeffs, 0 upgd conss, 9500 impls, 0 clqs
presolving (3 rounds: 3 fast, 2 medium, 2 exhaustive):
 102 deleted vars, 396 deleted constraints, 0 added constraints, 0 tightened bounds, 0 added holes, 104 changed sides, 7671 changed coefficients
 9500 implications, 0 cliques
presolved problem has 9498 variables (93 bin, 0 int, 0 impl, 9405 cont) and 9311 constraints
   8835 constraints of type <varbound>
    476 constraints of type <linear>
Presolving Time: 1.30
transformed 94/100 original solutions to the transformed problem space

 time | node  | left  |LP iter|LP it/n|mem/heur|mdpt |vars |cons |rows |cuts |sepa|confs|strbr|  dualbound   | primalbound  |  gap   | compl. 
 30.8s|     1 |     0 | 30129 |     - |   273M |   0 |9498 |9311 |9311 |   0 |  0 |  16k|  28 | 8.458149e+05 | 8.463460e+05 |   0.06%| unknown
 30.8s|     1 |     0 | 30129 |     - |   274M |   0 |9498 |9311 |8361 |   0 |  0 |  16k|  28 | 8.458149e+05 | 8.463460e+05 |   0.06%| unknown
 30.8s|     1 |     0 | 30129 |     - |   275M |   0 |9498 |9311 |7885 |   0 |  1 |  16k|  28 | 8.458149e+05 | 8.463460e+05 |   0.06%| unknown
 30.9s|     1 |     0 | 30169 |     - |   276M |   0 |9498 |9311 |7887 |   2 |  2 |  16k|  28 | 8.458149e+05 | 8.463460e+05 |   0.06%| unknown
 31.0s|     1 |     0 | 30205 |     - |   277M |   0 |9498 |9311 |7893 |   8 |  3 |  16k|  28 | 8.458199e+05 | 8.463460e+05 |   0.06%| unknown
 31.0s|     1 |     0 | 30205 |     - |   277M |   0 |9498 |9311 |7893 |   8 |  3 |  16k|  28 | 8.458199e+05 | 8.463460e+05 |   0.06%| unknown
 31.0s|     1 |     0 | 30214 |     - |   278M |   0 |9498 |9311 |7802 |   9 |  4 |  16k|  28 | 8.458207e+05 | 8.463460e+05 |   0.06%| unknown
 31.1s|     1 |     0 | 30221 |     - |   279M |   0 |9498 |9311 |7803 |  10 |  5 |  16k|  28 | 8.458208e+05 | 8.463460e+05 |   0.06%| unknown
 31.1s|     1 |     0 | 30246 |     - |   279M |   0 |9498 |9311 |7805 |  12 |  6 |  16k|  28 | 8.458218e+05 | 8.463460e+05 |   0.06%| unknown
 31.1s|     1 |     0 | 30246 |     - |   279M |   0 |9498 |9311 |7710 |  12 |  6 |  16k|  28 | 8.458218e+05 | 8.463460e+05 |   0.06%| unknown
 31.2s|     1 |     0 | 30250 |     - |   280M |   0 |9498 |9311 |7711 |  13 |  7 |  16k|  28 | 8.458222e+05 | 8.463460e+05 |   0.06%| unknown
 31.2s|     1 |     0 | 30270 |     - |   281M |   0 |9498 |9311 |7715 |  17 |  8 |  16k|  28 | 8.458246e+05 | 8.463460e+05 |   0.06%| unknown
 31.3s|     1 |     0 | 30286 |     - |   282M |   0 |9498 |9311 |7717 |  19 |  9 |  16k|  28 | 8.458252e+05 | 8.463460e+05 |   0.06%| unknown
 31.3s|     1 |     0 | 30303 |     - |   283M |   0 |9498 |9311 |7719 |  21 | 10 |  16k|  28 | 8.458260e+05 | 8.463460e+05 |   0.06%| unknown
 31.3s|     1 |     0 | 30312 |     - |   283M |   0 |9498 |9311 |7721 |  23 | 11 |  16k|  28 | 8.458269e+05 | 8.463460e+05 |   0.06%| unknown
 time | node  | left  |LP iter|LP it/n|mem/heur|mdpt |vars |cons |rows |cuts |sepa|confs|strbr|  dualbound   | primalbound  |  gap   | compl. 
 31.4s|     1 |     0 | 30320 |     - |   284M |   0 |9498 |9311 |7697 |  25 | 12 |  16k|  28 | 8.458275e+05 | 8.463460e+05 |   0.06%| unknown
 31.4s|     1 |     0 | 30325 |     - |   285M |   0 |9498 |9311 |7698 |  26 | 13 |  16k|  28 | 8.458276e+05 | 8.463460e+05 |   0.06%| unknown
 31.5s|     1 |     0 | 30330 |     - |   286M |   0 |9498 |9311 |7699 |  27 | 14 |  16k|  28 | 8.458278e+05 | 8.463460e+05 |   0.06%| unknown
 31.5s|     1 |     0 | 30331 |     - |   287M |   0 |9498 |9311 |7700 |  28 | 15 |  16k|  28 | 8.458278e+05 | 8.463460e+05 |   0.06%| unknown
 31.5s|     1 |     0 | 30339 |     - |   287M |   0 |9498 |9311 |7701 |  29 | 16 |  16k|  28 | 8.458280e+05 | 8.463460e+05 |   0.06%| unknown
 31.6s|     1 |     0 | 30346 |     - |   288M |   0 |9498 |9311 |7703 |  31 | 17 |  16k|  28 | 8.458282e+05 | 8.463460e+05 |   0.06%| unknown
 31.6s|     1 |     0 | 30353 |     - |   289M |   0 |9498 |9311 |7695 |  32 | 18 |  16k|  28 | 8.458285e+05 | 8.463460e+05 |   0.06%| unknown
L35.9s|     1 |     0 | 30794 |     - |    rens|   0 |9498 |7679 |7695 |  32 | 18 |  16k|  28 | 8.458285e+05 | 8.463070e+05 |   0.06%| unknown
 35.9s|     1 |     0 | 30794 |     - |   290M |   0 |9498 |7679 |7695 |  32 | 18 |  16k|  28 | 8.458285e+05 | 8.463070e+05 |   0.06%| unknown
 35.9s|     1 |     0 | 30794 |     - |   290M |   0 |9498 |7679 |7695 |  32 | 18 |  16k|  28 | 8.458285e+05 | 8.463070e+05 |   0.06%| unknown
 36.0s|     1 |     0 | 30812 |     - |   290M |   0 |9498 |7679 |7601 |  33 | 19 |  16k|  28 | 8.458289e+05 | 8.463070e+05 |   0.06%| unknown
 36.0s|     1 |     0 | 30818 |     - |   290M |   0 |9498 |7679 |7603 |  35 | 20 |  16k|  28 | 8.458292e+05 | 8.463070e+05 |   0.06%| unknown
 36.9s|     1 |     2 | 30818 |     - |   290M |   0 |9498 |7581 |7603 |  35 | 20 |  16k|  42 | 8.458561e+05 | 8.463070e+05 |   0.05%| unknown
 56.8s|   100 |    89 | 74902 | 459.7 |   308M |  19 |9498 |7584 |7588 |  96 |  1 |  16k| 221 | 8.459325e+05 | 8.463070e+05 |   0.04%|   7.40%
 65.3s|   200 |   159 | 95968 | 335.2 |   310M |  27 |9498 |7584 |7590 | 142 |  1 |  16k| 290 | 8.459944e+05 | 8.463070e+05 |   0.04%|  13.36%
 time | node  | left  |LP iter|LP it/n|mem/heur|mdpt |vars |cons |rows |cuts |sepa|confs|strbr|  dualbound   | primalbound  |  gap   | compl. 
 73.4s|   300 |   217 |113322 | 281.3 |   311M |  28 |9498 |7584 |7592 | 172 |  2 |  16k| 352 | 8.460477e+05 | 8.463070e+05 |   0.03%|  19.82%
 76.6s|   400 |   245 |116608 | 219.2 |   312M |  29 |9498 |7584 |7592 | 173 |  1 |  16k| 392 | 8.460490e+05 | 8.463070e+05 |   0.03%|  20.01%
 81.8s|   500 |   277 |127540 | 197.2 |   312M |  29 |9498 |7584 |7587 | 179 |  3 |  16k| 432 | 8.460659e+05 | 8.463070e+05 |   0.03%|  22.05%
 88.3s|   600 |   315 |146510 | 196.0 |   313M |  29 |9498 |7584 |7584 | 196 |  1 |  16k| 475 | 8.460722e+05 | 8.463070e+05 |   0.03%|  23.05%
 92.4s|   700 |   339 |153851 | 178.5 |   314M |  29 |9498 |7584 |7587 | 216 |  0 |  16k| 513 | 8.460746e+05 | 8.463070e+05 |   0.03%|  25.85%
 96.3s|   800 |   345 |161004 | 165.1 |   315M |  29 |9498 |7586 |7592 | 220 |  0 |  16k| 559 | 8.460993e+05 | 8.463070e+05 |   0.02%|  35.45%
L97.4s|   830 |   280 |162131 | 160.5 |crossove|  30 |9498 |7586 |7589 | 220 |  2 |  16k| 567 | 8.461096e+05 | 8.462670e+05 |   0.02%|  47.98%
 99.0s|   900 |   266 |163732 | 149.8 |   316M |  38 |9498 |7586 |7589 | 226 |  0 |  16k| 593 | 8.461199e+05 | 8.462670e+05 |   0.02%|  54.33%
  101s|  1000 |   254 |165764 | 136.8 |   316M |  38 |9498 |7586 |7593 | 227 |  0 |  16k| 610 | 8.461281e+05 | 8.462670e+05 |   0.02%|  61.62%
  104s|  1100 |   256 |171459 | 129.6 |   316M |  38 |9498 |7586 |7594 | 230 |  1 |  16k| 635 | 8.461281e+05 | 8.462670e+05 |   0.02%|  63.77%
  105s|  1200 |   232 |173059 | 120.1 |   316M |  38 |9498 |7586 |7588 | 230 |  1 |  16k| 655 | 8.461333e+05 | 8.462670e+05 |   0.02%|  70.00%
  107s|  1300 |   184 |174573 | 112.0 |   316M |  38 |9498 |7586 |7590 | 234 |  0 |  16k| 669 | 8.461395e+05 | 8.462670e+05 |   0.02%|  76.49%
  108s|  1400 |   112 |175837 | 104.9 |   316M |  38 |9498 |7586 |7624 | 234 |  0 |  16k| 673 | 8.461599e+05 | 8.462670e+05 |   0.01%|  84.76%
  109s|  1500 |    20 |176845 |  98.6 |   316M |  38 |9498 |7300 |7632 | 234 |  0 |  16k| 674 | 8.462059e+05 | 8.462670e+05 |   0.01%|  98.81%

SCIP Status        : problem is solved [optimal solution found]
Solving Time (sec) : 109.17
Solving Nodes      : 1520 (total of 1521 nodes in 2 runs)
Primal Bound       : +8.46267000000000e+05 (733 solutions)
Dual Bound         : +8.46267000000000e+05
Gap                : 0.00 %
Solve Status: optimal
Solve Time: 109.19 seconds
Objective Value: 846267.00
